
Welcome to IBM(R) ILOG(R) CPLEX(R) Interactive Optimizer 22.1.1.0
  with Simplex, Mixed Integer & Barrier Optimizers
5725-A06 5725-A29 5724-Y48 5724-Y49 5724-Y54 5724-Y55 5655-Y21
Copyright IBM Corp. 1988, 2022.  All Rights Reserved.

Type 'help' for a list of available commands.
Type 'help' followed by a command name for more
information on commands.

CPLEX> Selected objective sense:  MINIMIZE
Selected objective  name:  00000000
Selected RHS        name:  RHS1
Selected bound      name:  BOUND
Problem 'ee.mps' read.
Read time = 0.03 sec. (3.17 ticks)
CPLEX> New value for time limit in seconds: 7200
CPLEX> New value for parallel optimization mode: -1
CPLEX> New value for default parallel thread count: 40
CPLEX> New value for mixed integer optimality gap tolerance: 1e-13
CPLEX> Version identifier: 22.1.1.0 | 2022-11-28 | 9160aff4d
CPXPARAM_Threads                                 40
CPXPARAM_Parallel                                -1
CPXPARAM_TimeLimit                               7200
CPXPARAM_MIP_Tolerances_MIPGap                   1e-13
Found incumbent of value 0.000000 after 0.00 sec. (0.31 ticks)
Tried aggregator 2 times.
MIP Presolve eliminated 182 rows and 2745 columns.
MIP Presolve modified 6090 coefficients.
Aggregator did 713 substitutions.
Reduced MIP has 3636 rows, 7840 columns, and 28954 nonzeros.
Reduced MIP has 7840 binaries, 0 generals, 0 SOSs, and 0 indicators.
Presolve time = 0.07 sec. (69.14 ticks)
Probing time = 0.03 sec. (5.33 ticks)
Tried aggregator 1 time.
Detecting symmetries...
Reduced MIP has 3636 rows, 7840 columns, and 28954 nonzeros.
Reduced MIP has 7840 binaries, 0 generals, 0 SOSs, and 0 indicators.
Presolve time = 0.03 sec. (22.09 ticks)
Probing time = 0.02 sec. (5.12 ticks)
Clique table members: 18788.
MIP emphasis: balance optimality and feasibility.
MIP search method: dynamic search.
Parallel mode: opportunistic, using up to 40 threads.
Root relaxation solution time = 0.16 sec. (136.42 ticks)

        Nodes                                         Cuts/
   Node  Left     Objective  IInf  Best Integer    Best Bound    ItCnt     Gap

*     0+    0                            0.0000  -1.54000e+13              --- 
*     0+    0                      -7.20000e+12  -1.54000e+13           113.89%
      0     0  -1.53900e+13    71  -7.20000e+12  -1.53900e+13     2731  113.75%
*     0+    0                      -1.53900e+13  -1.53900e+13             0.00%
      0     0  -1.53900e+13   150  -1.53900e+13      Cuts: 77     3654    0.00%
      0     0  -1.53900e+13   141  -1.53900e+13      Cuts: 57     3880    0.00%
      0     0  -1.53900e+13   166  -1.53900e+13      Cuts: 52     3990    0.00%
*     0+    0                      -1.53900e+13  -1.53900e+13             0.00%
*     0+    0                      -1.53900e+13  -1.53900e+13             0.00%
      0    13    infeasible        -1.53900e+13  -1.53900e+13    13043    0.00%
Elapsed time = 2.69 sec. (1360.28 ticks, tree = 0.02 MB, solutions = 10)
    157    34  -1.53900e+13    48  -1.53900e+13  -1.53900e+13    73991    0.00%
    318     5  -1.53900e+13   144  -1.53900e+13  -1.53900e+13     4254    0.00%
    557    35        cutoff        -1.53900e+13  -1.53900e+13   113482    0.00%
    888    35  -1.53900e+13   176  -1.53900e+13  -1.53900e+13   111893    0.00%
   1389    40        cutoff        -1.53900e+13  -1.53900e+13   113943    0.00%
   1848    43  -1.53900e+13    82  -1.53900e+13  -1.53900e+13   117459    0.00%
   2227    52  -1.53900e+13   227  -1.53900e+13  -1.53900e+13   455678    0.00%
   2602    59        cutoff        -1.53900e+13  -1.53900e+13   150468    0.00%
   2942   120  -1.53900e+13   164  -1.53900e+13  -1.53900e+13   228706    0.00%
   4546   178  -1.53900e+13    44  -1.53900e+13  -1.53900e+13   602117    0.00%
Elapsed time = 10.24 sec. (4464.53 ticks, tree = 0.51 MB, solutions = 21)
   6488   179        cutoff        -1.53900e+13  -1.53900e+13   604163    0.00%
   8741  1174  -1.53900e+13   154  -1.53900e+13  -1.53900e+13  1087719    0.00%
  10546  1038  -1.53900e+13   200  -1.53900e+13  -1.53900e+13  1006269    0.00%
  12001  1366  -1.53900e+13   200  -1.53900e+13  -1.53900e+13  1170116    0.00%
  12706  1646        cutoff        -1.53900e+13  -1.53900e+13  1446267    0.00%
  12980  1662        cutoff        -1.53900e+13  -1.53900e+13  1511050    0.00%

Performing restart 1

Repeating presolve.
Tried aggregator 2 times.
MIP Presolve eliminated 263 rows and 799 columns.
MIP Presolve modified 2085 coefficients.
Aggregator did 93 substitutions.
Reduced MIP has 3193 rows, 6937 columns, and 24982 nonzeros.
Reduced MIP has 6937 binaries, 0 generals, 0 SOSs, and 0 indicators.
Presolve time = 0.07 sec. (72.54 ticks)
Tried aggregator 2 times.
MIP Presolve eliminated 10 rows and 36 columns.
MIP Presolve modified 12 coefficients.
Aggregator did 16 substitutions.
Reduced MIP has 3167 rows, 6879 columns, and 24777 nonzeros.
Reduced MIP has 6879 binaries, 0 generals, 0 SOSs, and 0 indicators.
Presolve time = 0.06 sec. (48.02 ticks)
Represolve time = 0.24 sec. (173.34 ticks)
  13029     0  -1.53900e+13   258  -1.53900e+13      Cuts: 25  1842810    0.00%
  13029     0  -1.53900e+13   275  -1.53900e+13      Cuts: 35  1843577    0.00%
  13029     0  -1.53900e+13   315  -1.53900e+13      Cuts: 39  1844193    0.00%
  13029     0  -1.53900e+13   324  -1.53900e+13      Cuts: 51  1844467    0.00%
  13029     0  -1.53900e+13   317  -1.53900e+13      Cuts: 45  1844573    0.00%
  13029     0  -1.53900e+13   289  -1.53900e+13      Cuts: 36  1844752    0.00%
  13029     0  -1.53900e+13   378  -1.53900e+13      Cuts: 34  1845049    0.00%
  13029     0  -1.53900e+13   302  -1.53900e+13      Cuts: 39  1845166    0.00%
  13029     0  -1.53900e+13   296  -1.53900e+13      Cuts: 37  1845257    0.00%
  13029     5    infeasible        -1.53900e+13  -1.53900e+13  1866449    0.00%
  13071     3  -1.53900e+13   146  -1.53900e+13  -1.53900e+13  1848208    0.00%
  13093     6  -1.53900e+13   109  -1.53900e+13  -1.53900e+13  1863139    0.00%
  13098     5  -1.53900e+13   176  -1.53900e+13  -1.53900e+13  1862262    0.00%
Elapsed time = 23.65 sec. (17564.56 ticks, tree = 0.02 MB, solutions = 21)

GUB cover cuts applied:  4
Clique cuts applied:  12
Cover cuts applied:  221
Flow cuts applied:  4
Mixed integer rounding cuts applied:  26
Zero-half cuts applied:  31
Lift and project cuts applied:  5
Gomory fractional cuts applied:  16

Root node processing (before b&c):
  Real time             =    1.56 sec. (1354.36 ticks)
Parallel b&c, 40 threads:
  Real time             =   22.13 sec. (16495.31 ticks)
  Sync time (average)   =    5.47 sec.
  Wait time (average)   =    0.14 sec.
                          ------------
Total (root+branch&cut) =   23.69 sec. (17849.67 ticks)

Solution pool: 21 solutions saved.

MIP - Integer optimal solution:  Objective = -1.5389998689e+13
Solution time =   23.81 sec.  Iterations = 1870506  Nodes = 13102
Deterministic time = 17849.70 ticks  (749.66 ticks/sec)

CPLEX> Solution 'p22' written to file 'ee.sol'.
CPLEX> 